NAME : XML100_3132_24
DIMENSION : 101
NB_CLUSTERS : 4
CLUSTERING_ALG : KMedoids
CLUSTERING_PARAMS : k(3)
CLUSTERS
1 0
2 1 3 4 6 11 12 14 15 17 21 25 28 34 35 37 38 41 42 43 56 57 58 59 61 68 69 71 74 83 88 92 95 96
3 2 5 8 10 13 16 19 20 24 26 29 30 31 32 39 40 45 50 52 54 62 66 70 72 76 77 79 81 82 84 87 90 93 98 99 100
4 7 9 18 22 23 27 33 36 44 46 47 48 49 51 53 55 60 63 64 65 67 73 75 78 80 85 86 89 91 94 97
EOF